/*********************************************
 * OPL 12.6.1.0 Data
 * Author: Administrateur
 * Creation Date: 14 nov. 2018 at 16:35:22
 *********************************************/
nbElements = 5;
Poids =
[2, 4, 6, 2, 10];